
Gurobi 9.1.0 (win64) logging started Sun Dec 13 15:42:00 2020

Changed value of parameter LogFile to logs/iteration3
   Prev:   Default: 
Gurobi Optimizer version 9.1.0 build v9.1.0rc0 (win64)
Thread count: 4 physical cores, 8 logical processors, using up to 8 threads
Optimize a model with 136 rows, 236 columns and 636 nonzeros
Model fingerprint: 0x71177d5d
Coefficient statistics:
  Matrix range     [1e+00, 1e+00]
  Objective range  [1e+03, 2e+03]
  Bounds range     [0e+00, 0e+00]
  RHS range        [1e+00, 1e+00]
Presolve removed 87 rows and 87 columns
Presolve time: 0.00s
Presolved: 49 rows, 149 columns, 547 nonzeros

Iteration    Objective       Primal Inf.    Dual Inf.      Time
       0    1.4701025e+05   3.100000e+01   0.000000e+00      0s
      53    1.7229517e+05   0.000000e+00   0.000000e+00      0s

Solved in 53 iterations and 0.00 seconds
Optimal objective  1.722951667e+05

Solutionx[0] 1.000000 
x[2] 1.000000 
x[5] 1.000000 
x[7] 1.000000 
x[8] 1.000000 
x[9] 1.000000 
x[10] 1.000000 
x[12] 1.000000 
x[13] 1.000000 
x[14] 1.000000 
x[16] 1.000000 
x[18] 1.000000 
x[20] 1.000000 
x[24] 1.000000 
x[26] 1.000000 
x[27] 1.000000 
x[29] 1.000000 
x[33] 1.000000 
x[35] 1.000000 
x[36] 1.000000 
x[38] 1.000000 
x[39] 1.000000 
x[40] 1.000000 
x[42] 1.000000 
x[43] 1.000000 
x[44] 1.000000 
x[45] 1.000000 
x[46] 1.000000 
x[47] 1.000000 
x[51] 1.000000 
x[52] 1.000000 
x[54] 1.000000 
x[55] 1.000000 
x[57] 1.000000 
x[58] 1.000000 
x[59] 1.000000 
x[60] 1.000000 
x[61] 1.000000 
x[62] 1.000000 
x[63] 1.000000 
x[64] 1.000000 
x[65] 1.000000 
x[66] 1.000000 
x[67] 1.000000 
x[68] 1.000000 
x[69] 1.000000 
x[70] 1.000000 
x[71] 1.000000 
x[72] 1.000000 
x[73] 1.000000 
x[74] 1.000000 
x[75] 1.000000 
x[76] 1.000000 
x[77] 1.000000 
x[78] 1.000000 
x[82] 1.000000 
x[83] 1.000000 
x[84] 1.000000 
x[87] 1.000000 
x[89] 1.000000 
x[90] 1.000000 
x[91] 1.000000 
x[92] 1.000000 
x[93] 1.000000 
x[94] 1.000000 
x[95] 1.000000 
x[96] 1.000000 
x[97] 1.000000 
x[98] 1.000000 
x[99] 1.000000 
x[100] 1.000000 
x[101] 1.000000 
x[102] 1.000000 
x[103] 1.000000 
x[104] 1.000000 
x[105] 1.000000 
x[106] 1.000000 
x[107] 1.000000 
x[108] 1.000000 
x[109] 1.000000 
x[110] 1.000000 
x[111] 1.000000 
x[112] 1.000000 
x[113] 1.000000 
x[114] 1.000000 
x[115] 1.000000 
x[116] 1.000000 
x[117] 1.000000 
x[118] 1.000000 
x[119] 1.000000 
x[120] 1.000000 
x[121] 1.000000 
x[122] 1.000000 
x[123] 1.000000 
x[124] 1.000000 
x[125] 1.000000 
x[126] 1.000000 
x[127] 1.000000 
x[128] 1.000000 
x[129] 1.000000 
x[130] 1.000000 
x[131] 1.000000 
x[132] 1.000000 
x[133] 1.000000 
x[134] 1.000000 
x[135] 1.000000 
x[906] 1.000000 
x[1081] 1.000000 
x[1772] 1.000000 
x[3127] 1.000000 
x[3471] 1.000000 
x[20743] 1.000000 
